%chk=1br5_flip_ligH_hoptdefH-3_relaxed.chk
%mem=4GB
%nprocshared=4
#oniom(external='Gau_Mlatom.py AIQM1':amber=softonly) 
nosymm geom=connectivity

Title Card Required

0 1 -1 1 -1 1 
 N-N3-0.031100   -1    2.08800000   -5.71200000   36.88800000 L
 C-CT-0.025700   -1    1.43400000   -5.62700000   35.59200000 L
 C-C-0.612300    -1    1.78600000   -4.21100000   35.10200000 L
 O-O--0.571300   -1    2.26200000   -3.43000000   35.95600000 L
 C-CT-0.188500   -1   -0.10800000   -5.78600000   35.75300000 L
 C-CT--0.038700  -1   -0.69800000   -4.70900000   36.69700000 L
 C-CT--0.372000  -1   -0.37100000   -7.21300000   36.20900000 L
 C-CT--0.090800  -1   -2.21600000   -4.41600000   36.49400000 L
 H-H-0.232900    -1    1.89900000   -6.60100000   37.31300000 L
 H-HP-0.103100   -1    1.90400000   -6.24600000   34.99600000 L
 H-HC-0.021300   -1   -0.52100000   -5.66400000   34.85600000 L
 H-HC-0.020100   -1   -0.56400000   -5.00400000   37.64000000 L
 H-HC-0.020100   -1   -0.20100000   -3.85600000   36.55100000 L
 H-HC-0.094700   -1   -1.35600000   -7.37100000   36.25900000 L
 H-HC-0.094700   -1    0.03500000   -7.85200000   35.55800000 L
 H-HC-0.094700   -1    0.03500000   -7.35600000   37.11000000 L
 H-HC-0.022600   -1   -2.71600000   -5.25700000   36.65400000 L
 H-HC-0.022600   -1   -2.48500000   -3.71800000   37.14500000 L
 H-HC-0.022600   -1   -2.34700000   -4.09900000   35.56300000 L
 H-H-0.232900    -1    3.08000000   -5.60900000   36.78100000 L
 H-H-0.232900    -1    1.75100000   -4.98600000   37.49300000 L
 N-N--0.415700   -1    1.63100000   -3.87400000   33.80600000 L
 C-CT--0.002400  -1    1.87800000   -2.51700000   33.34600000 L
 C-C-0.597300    -1    0.53800000   -1.77300000   33.52000000 L
 O-O--0.567900   -1   -0.50600000   -2.46500000   33.62500000 L
 C-CT--0.034300  -1    2.35200000   -2.60200000   31.89500000 L
 C-CA-0.011800   -1    2.99500000   -1.29400000   31.44400000 L
 C-CA--0.125600  -1    3.90900000   -0.62300000   32.29400000 L
 C-CA--0.125600  -1    2.60300000   -0.71500000   30.22100000 L
 C-CA--0.170400  -1    4.40100000    0.63400000   31.92300000 L
 C-CA--0.170400  -1    3.10900000    0.54400000   29.86500000 L
 C-CA--0.107200  -1    4.00300000    1.22000000   30.71000000 L
 H-H-0.271900    -1    1.33000000   -4.65000000   33.19500000 L
 H-H1-0.097800   -1    2.51000000   -2.09900000   33.97600000 L
 H-HC-0.029500   -1    3.03000000   -3.30100000   31.83300000 L
 H-HC-0.029500   -1    1.57500000   -2.76100000   31.32600000 L
 H-HA-0.133000   -1    4.19400000   -1.03900000   33.13500000 L
 H-HA-0.133000   -1    1.98200000   -1.19100000   29.62400000 L
 H-HA-0.143000   -1    5.04000000    1.11500000   32.53000000 L
 H-HA-0.143000   -1    2.82200000    0.96500000   28.99000000 L
 H-HA-0.129700   -1    4.35700000    2.11300000   30.45300000 L
 N-N--0.254800   -1    0.44300000   -0.43300000   33.72300000 L
 C-CT--0.026600  -1   -0.83400000    0.27200000   33.88500000 L
 C-C-0.589600    -1   -1.67500000    0.22200000   32.60700000 L
 O-O--0.574800   -1   -1.61600000    1.11600000   31.74500000 L
 C-CT--0.007000  -1   -0.42500000    1.69600000   34.31400000 L
 C-CT-0.018900   -1    0.99200000    1.87600000   33.79700000 L
 C-CT-0.019200   -1    1.52400000    0.47400000   34.12200000 L
 H-H1-0.064100   -1   -1.35200000   -0.10300000   34.66600000 L
 H-HC-0.025300   -1   -1.03500000    2.37800000   33.90600000 L
 H-HC-0.025300   -1   -0.44800000    1.78700000   35.31000000 L
 H-HC-0.021300   -1    0.99100000    2.03100000   32.83800000 L
 H-HC-0.021300   -1    1.46200000    2.55100000   34.31300000 L
 H-H1-0.039100   -1    2.36100000    0.28700000   33.60400000 L
 H-H1-0.039100   -1    1.72100000    0.39100000   35.10200000 L
 N-N--0.347900   -1   -2.51300000   -0.82800000   32.62100000 L
 C-CT--0.240000  -1   -3.39600000   -1.25800000   31.53500000 L
 C-C-0.734100    -1   -2.55600000   -1.95000000   30.45500000 L
 O-O--0.589400   -1   -1.58400000   -1.44200000   29.86400000 L
 C-CT--0.009400  -1   -4.18100000   -0.09500000   30.82500000 L
 C-CT-0.018700   -1   -5.70200000    0.08100000   31.12300000 L
 C-CT--0.047900  -1   -5.98800000    0.34000000   32.63600000 L
 C-CT--0.014300  -1   -5.36800000    1.62200000   33.25700000 L
 N-N3--0.385400  -1   -5.20500000    1.51100000   34.71200000 L
 H-H-0.274700    -1   -2.47900000   -1.35700000   33.55200000 L
 H-H1-0.142600   -1   -4.05800000   -1.91300000   31.89300000 L
 H-HC-0.036200   -1   -3.72000000    0.77200000   31.06700000 L
 H-HC-0.036200   -1   -4.07800000   -0.22700000   29.82700000 L
 H-HC-0.010300   -1   -6.04100000    0.85900000   30.60100000 L
 H-HC-0.010300   -1   -6.17900000   -0.74900000   30.85000000 L
 H-HC-0.062100   -1   -6.99000000    0.38700000   32.76000000 L
 H-HC-0.062100   -1   -5.64800000   -0.45500000   33.15800000 L
 H-HP-0.113500   -1   -4.47700000    1.77300000   32.81900000 L
 H-HP-0.113500   -1   -5.97200000    2.39200000   33.03400000 L
 H-H-0.340000    -1   -4.94900000    2.40200000   35.09600000 L
 H-H-0.340000    -1   -6.06500000    1.20900000   35.13000000 L
 H-H-0.340000    -1   -4.48600000    0.84500000   34.92500000 L
 N-N--0.415700   -1   -2.94600000   -3.22200000   30.33300000 L
 C-CT--0.003100  -1   -2.43600000   -4.06900000   29.27100000 L
 C-C-0.597300    -1   -3.39800000   -3.72500000   28.14600000 L
 O-O--0.567900   -1   -4.62900000   -3.82600000   28.34000000 L
 C-CT--0.003600  -1   -2.57800000   -5.57600000   29.57500000 L
 C-CT--0.064500  -1   -1.39500000   -6.25600000   30.28000000 L
 C-C-0.695100    -1   -0.78000000   -5.42800000   31.40100000 L
 O-O--0.608600   -1    0.45000000   -5.33500000   31.50600000 L
 N-N--0.940700   -1   -1.58500000   -4.80500000   32.28300000 L
 H-H-0.271900    -1   -3.62700000   -3.53600000   31.04800000 L
 H-H1-0.085000   -1   -1.55300000   -3.75100000   29.01800000 L
 H-HC-0.017100   -1   -3.39700000   -5.70800000   30.15300000 L
 H-HC-0.017100   -1   -2.73700000   -6.06300000   28.70200000 L
 H-HC-0.035200   -1   -1.71500000   -7.12600000   30.66500000 L
 H-HC-0.035200   -1   -0.68600000   -6.44400000   29.59500000 L
 H-H-0.425100    -1   -1.23200000   -4.27100000   33.03100000 L
 H-H-0.425100    -1   -2.60000000   -4.91000000   32.14300000 L
 N-N--0.415700   -1   -2.82000000   -3.25000000   27.02900000 L
 C-CT--0.001400  -1   -3.60200000   -2.94300000   25.84000000 L
 C-C-0.597300    -1   -4.35200000   -4.19700000   25.31300000 L
 O-O--0.567900   -1   -3.86600000   -5.30600000   25.58000000 L
 C-CT--0.015200  -1   -2.65200000   -2.37500000   24.77100000 L
 C-CA--0.001100  -1   -1.97500000   -1.03400000   25.08100000 L
 C-CA--0.190600  -1   -2.69200000    0.16300000   25.07000000 L
 C-CA--0.190600  -1   -0.60600000   -1.02400000   25.37100000 L
 C-CA--0.234100  -1   -2.04700000    1.36900000   25.33400000 L
 C-CA--0.234100  -1    0.04300000    0.17300000   25.63300000 L
 C-C-0.322600    -1   -0.68400000    1.36000000   25.61800000 L
 O-OH--0.557900  -1   -0.00300000    2.53100000   25.87200000 L
 H-H-0.271900    -1   -1.79400000   -3.12800000   27.09500000 L
 H-H1-0.087600   -1   -4.29800000   -2.25600000   26.07700000 L
 H-HC-0.029500   -1   -1.92400000   -3.05200000   24.60700000 L
 H-HC-0.029500   -1   -3.17400000   -2.26000000   23.91700000 L
 H-HA-0.169900   -1   -3.66600000    0.15800000   24.87300000 L
 H-HA-0.169900   -1   -0.10300000   -1.87800000   25.38900000 L
 H-HA-0.165600   -1   -2.55300000    2.22600000   25.32100000 L
 H-HA-0.165600   -1    1.02000000    0.18800000   25.83000000 L
 H-HO-0.399200   -1    0.96200000    2.31400000   26.03200000 L
 N-N--0.254800   -1   -5.52000000   -4.15900000   24.62300000 L
 C-CT--0.026600  -1   -6.19400000   -5.34100000   24.06400000 L
 C-C-0.589600    -1   -5.39300000   -6.07600000   23.00600000 L
 O-O--0.574800   -1   -4.73100000   -5.45800000   22.17600000 L
 C-CT--0.007000  -1   -7.49000000   -4.82300000   23.52200000 L
 C-CT-0.018900   -1   -7.11400000   -3.40600000   23.18000000 L
 C-CT-0.019200   -1   -6.30500000   -2.96100000   24.37700000 L
 H-H1-0.064100   -1   -6.46600000   -5.97700000   24.81700000 L
 H-HC-0.025300   -1   -7.77200000   -5.31200000   22.70600000 L
 H-HC-0.025300   -1   -8.20900000   -4.83500000   24.20500000 L
 H-HC-0.021300   -1   -6.56600000   -3.38100000   22.35000000 L
 H-HC-0.021300   -1   -7.92900000   -2.84600000   23.07200000 L
 H-H1-0.039100   -1   -5.72600000   -2.19000000   24.15000000 L
 H-H1-0.039100   -1   -6.89300000   -2.74900000   25.14700000 L
 N-N--0.415700   -1   -5.47700000   -7.40100000   23.05300000 L
 C-CT--0.059700  -1   -4.72000000   -8.29500000   22.18700000 L
 C-C-0.597300    -1   -5.82200000   -9.04800000   21.49300000 L
 O-O--0.567900   -1   -6.85300000   -9.38200000   22.10200000 L
 C-CT-0.130300   -1   -3.85400000   -9.39700000   22.90200000 L
 C-CT--0.043000  -1   -3.48400000   -9.00200000   24.35400000 L
 C-CT--0.320400  -1   -2.62200000   -9.67200000   22.02100000 L
 C-CT--0.066000  -1   -2.41200000   -7.90200000   24.63500000 L
 H-H-0.271900    -1   -6.15000000   -7.75700000   23.78300000 L
 H-H1-0.086900   -1   -4.29400000   -7.72900000   21.51600000 L
 H-HC-0.018700   -1   -4.40200000  -10.22800000   22.93900000 L
 H-HC-0.023600   -1   -4.34300000   -8.72000000   24.83300000 L
 H-HC-0.023600   -1   -3.17900000   -9.85000000   24.84100000 L
 H-HC-0.088200   -1   -2.09900000  -10.42000000   22.41800000 L
 H-HC-0.088200   -1   -2.92600000   -9.91900000   21.10600000 L
 H-HC-0.088200   -1   -2.06100000   -8.85000000   21.98100000 L
 H-HC-0.018600   -1   -2.72300000   -7.05700000   24.22000000 L
 H-HC-0.018600   -1   -2.32500000   -7.80200000   25.61700000 L
 H-HC-0.018600   -1   -1.55600000   -8.19800000   24.23300000 L
 N-N--0.415700   -1   -5.64200000   -9.27600000   20.20100000 L
 C-CT--0.059700  -1   -6.60200000  -10.00500000   19.40800000 L
 C-C-0.597300    -1   -5.68200000  -11.02200000   18.76900000 L
 O-O--0.567900   -1   -4.62000000  -10.68300000   18.27200000 L
 C-CT-0.130300   -1   -7.26300000   -8.99700000   18.42800000 L
 C-CT--0.043000  -1   -8.06300000   -7.96500000   19.20500000 L
 C-CT--0.320400  -1   -8.21300000   -9.71900000   17.47400000 L
 C-CT--0.066000  -1   -7.97700000   -6.59300000   18.56800000 L
 H-H-0.271900    -1   -4.75300000   -8.88500000   19.81400000 L
 H-H1-0.086900   -1   -7.16400000  -10.49400000   20.03000000 L
 H-HC-0.018700   -1   -6.53400000   -8.53200000   17.94200000 L
 H-HC-0.023600   -1   -9.01200000   -8.24800000   19.23200000 L
 H-HC-0.023600   -1   -7.70100000   -7.91000000   20.12700000 L
 H-HC-0.088200   -1   -8.61900000   -9.05700000   16.84800000 L
 H-HC-0.088200   -1   -7.70400000  -10.40200000   16.95400000 L
 H-HC-0.088200   -1   -8.93300000  -10.16700000   18.00000000 L
 H-HC-0.018600   -1   -8.33800000   -6.63700000   17.63800000 L
 H-HC-0.018600   -1   -8.51400000   -5.94500000   19.10600000 L
 H-HC-0.018600   -1   -7.02300000   -6.29900000   18.54400000 L
 N-N--0.415700   -1   -6.02500000  -12.29300000   18.88800000 L
 C-CT-0.014300   -1   -5.24200000  -13.40400000   18.38400000 L
 C-C-0.597300    -1   -5.82500000  -13.90000000   17.07100000 L
 O-O--0.567900   -1   -7.02200000  -13.73300000   16.79600000 L
 C-CT--0.204100  -1   -5.24800000  -14.54900000   19.37700000 L
 C-C-0.713000    -1   -4.44400000  -14.28000000   20.63900000 L
 O-O--0.593100   -1   -4.72400000  -13.39600000   21.46100000 L
 N-N--0.919100   -1   -3.38500000  -15.04200000   20.84900000 L
 H-H-0.271900    -1   -6.94500000  -12.43500000   19.39600000 L
 H-H1-0.104800   -1   -4.32100000  -13.05700000   18.18400000 L
 H-HC-0.079700   -1   -6.19600000  -14.73800000   19.64500000 L
 H-HC-0.079700   -1   -4.86700000  -15.36300000   18.93100000 L
 H-H-0.419600    -1   -3.14500000  -15.75500000   20.18200000 L
 H-H-0.419600    -1   -2.82200000  -14.91500000   21.66300000 L
 N-N--0.415700   -1   -4.97700000  -14.50700000   16.25000000 L
 C-CT--0.002400  -1   -5.34200000  -15.06100000   14.96200000 L
 C-C-0.597300    -1   -4.39600000  -16.18800000   14.62500000 L
 O-O--0.567900   -1   -3.22200000  -16.08700000   14.98500000 L
 C-CT--0.034300  -1   -5.21100000  -14.03400000   13.87000000 L
 C-CA-0.011800   -1   -5.51600000  -14.58700000   12.48400000 L
 C-CA--0.125600  -1   -6.80300000  -15.07500000   12.20200000 L
 C-CA--0.125600  -1   -4.50500000  -14.60500000   11.52000000 L
 C-CA--0.170400  -1   -7.07000000  -15.58800000   10.93300000 L
 C-CA--0.170400  -1   -4.78300000  -15.11700000   10.26700000 L
 C-CA--0.107200  -1   -6.05600000  -15.60600000    9.97000000 L
 H-H-0.271900    -1   -3.98800000  -14.55200000   16.62700000 L
 H-H1-0.097800   -1   -6.25400000  -15.46300000   15.06200000 L
 H-HC-0.029500   -1   -5.85300000  -13.30400000   14.04000000 L
 H-HC-0.029500   -1   -4.28100000  -13.70400000   13.85300000 L
 H-HA-0.133000   -1   -7.50400000  -15.05400000   12.88700000 L
 H-HA-0.133000   -1   -3.60700000  -14.25500000   11.73700000 L
 H-HA-0.143000   -1   -7.98200000  -15.94100000   10.71800000 L
 H-HA-0.143000   -1   -4.05600000  -15.13900000    9.55800000 L
 H-HA-0.129700   -1   -6.25000000  -15.97400000    9.05900000 L
 N-N--0.415700   -1   -4.83900000  -17.23800000   13.93100000 L
 C-CT--0.038900  -1   -3.90100000  -18.23700000   13.48500000 L
 C-C-0.597300    -1   -4.06400000  -18.70300000   12.02800000 L
 O-O--0.567900   -1   -5.13800000  -18.92800000   11.46300000 L
 C-CT-0.365400   -1   -3.96000000  -19.42000000   14.47400000 L
 O-OH--0.676100  -1   -2.72300000  -20.04400000   14.20000000 L
 C-CT--0.243800  -1   -5.13900000  -20.38200000   14.38500000 L
 H-H-0.271900    -1   -5.84900000  -17.25900000   13.75900000 L
 H-H1-0.100700   -1   -2.95000000  -17.86200000   13.58100000 L
 H-H1-0.004300   -1   -3.94900000  -19.06100000   15.39600000 L
 H-HO-0.410200   -1   -2.16100000  -19.64200000   13.52300000 L
 H-HC-0.064200   -1   -5.99300000  -19.88800000   14.55900000 L
 H-HC-0.064200   -1   -5.17500000  -20.79000000   13.47000000 L
 H-HC-0.064200   -1   -5.03500000  -21.11000000   15.06600000 L
 N-N--0.415700   -1   -2.88400000  -18.85900000   11.44900000 L
 C-CT--0.038900  -1   -2.70200000  -19.32600000   10.10100000 L
 C-C-0.597300    -1   -2.89600000  -20.83000000   10.03900000 L
 O-O--0.567900   -1   -3.17200000  -21.39700000    8.98300000 L
 C-CT-0.365400   -1   -1.29900000  -18.88500000    9.68100000 L
 O-OH--0.676100  -1   -0.40500000  -19.04200000   10.80500000 L
 C-CT--0.243800  -1   -1.30400000  -17.43000000    9.22600000 L
 H-H-0.271900    -1   -2.07100000  -18.60400000   12.08000000 L
 H-H1-0.100700   -1   -3.39300000  -18.89500000    9.50800000 L
 H-H1-0.004300   -1   -0.96700000  -19.48900000    8.93300000 L
 H-HO-0.410200   -1   -0.93600000  -19.40400000   11.58500000 L
 H-HC-0.064200   -1   -1.54100000  -17.38000000    8.25400000 L
 H-HC-0.064200   -1   -1.97800000  -16.91200000    9.75700000 L
 H-HC-0.064200   -1   -0.39600000  -17.02900000    9.36500000 L
 N-N--0.415700   -1   -2.80500000  -21.44700000   11.22000000 L
 C-CT-0.033700   -1   -2.90200000  -22.85700000   11.42700000 L
 C-C-0.597300    -1   -4.09800000  -23.54600000   10.83700000 L
 O-O--0.567900   -1   -3.86600000  -24.49400000   10.08100000 L
 C-CT--0.182500  -1   -2.87200000  -23.16200000   12.89800000 L
 H-H-0.271900    -1   -2.64700000  -20.75800000   12.02200000 L
 H-H1-0.082300   -1   -2.04900000  -23.30500000   11.04200000 L
 H-HC-0.060300   -1   -3.35100000  -24.02400000   13.08000000 L
 H-HC-0.060300   -1   -1.92300000  -23.24500000   13.21300000 L
 H-HC-0.060300   -1   -3.32100000  -22.42600000   13.41100000 L
 N-N--0.415700   -1   -5.34700000  -23.19800000   11.11700000 L
 C-CT--0.025200  -1   -6.44500000  -23.86300000   10.42600000 L
 C-C-0.597300    -1   -7.39100000  -22.79700000    9.89900000 L
 O-O--0.567900   -1   -8.59900000  -22.91300000   10.07700000 L
 H-H-0.271900    -1   -5.46400000  -22.46500000   11.82000000 L
 H-H1-0.069800   -1   -6.08800000  -24.39800000    9.66500000 L
 H-H1-0.069800   -1   -6.93200000  -24.45600000   11.06100000 L
 N-N--0.415700   -1   -6.87500000  -21.74200000    9.25800000 L
 C-CT-0.033700   -1   -7.67000000  -20.58600000    8.85200000 L
 C-C-0.597300    -1   -8.67800000  -20.85200000    7.74900000 L
 O-O--0.567900   -1   -8.46800000  -21.68100000    6.85200000 L
 C-CT--0.182500  -1   -6.76300000  -19.44700000    8.37300000 L
 H-H-0.271900    -1   -5.84700000  -21.81900000    9.07300000 L
 H-H1-0.082300   -1   -8.17400000  -20.23900000    9.67500000 L
 H-HC-0.060300   -1   -7.32700000  -18.70700000    8.01200000 L
 H-HC-0.060300   -1   -6.22100000  -19.11300000    9.14100000 L
 H-HC-0.060300   -1   -6.15700000  -19.78800000    7.65700000 L
 N-N--0.415700   -1   -9.80900000  -20.15700000    7.87400000 L
 C-CT--0.038900  -1  -10.90300000  -20.23500000    6.91800000 L
 C-C-0.597300    -1  -11.44100000  -18.82200000    6.75100000 L
 O-O--0.567900   -1  -11.17400000  -17.94400000    7.58100000 L
 C-CT-0.365400   -1  -12.09700000  -21.13300000    7.42000000 L
 O-OH--0.676100  -1  -12.52300000  -20.54000000    8.63000000 L
 C-CT--0.243800  -1  -11.78300000  -22.57200000    7.69800000 L
 H-H-0.271900    -1   -9.84000000  -19.54600000    8.72700000 L
 H-H1-0.100700   -1  -10.54600000  -20.54100000    6.04500000 L
 H-H1-0.004300   -1  -12.83100000  -21.07300000    6.74000000 L
 H-HO-0.410200   -1  -11.99300000  -19.73100000    8.87000000 L
 H-HC-0.064200   -1  -12.53600000  -23.16300000    7.38600000 L
 H-HC-0.064200   -1  -10.94200000  -22.84700000    7.21900000 L
 H-HC-0.064200   -1  -11.65000000  -22.71800000    8.68500000 L
 N-N--0.415700   -1  -12.38700000  -18.65900000    5.83200000 L
 C-CT--0.087500  -1  -13.01700000  -17.38100000    5.62000000 L
 C-C-0.597300    -1  -13.72500000  -16.97100000    6.90000000 L
 O-O--0.567900   -1  -13.64200000  -15.80800000    7.28700000 L
 C-CT-0.298500   -1  -13.97900000  -17.51800000    4.41300000 L
 C-CT--0.319200  -1  -14.46900000  -16.15800000    4.02300000 L
 C-CT--0.319200  -1  -13.26600000  -18.01900000    3.17200000 L
 H-H-0.271900    -1  -12.62200000  -19.51900000    5.29600000 L
 H-H1-0.096900   -1  -12.30800000  -16.70100000    5.43000000 L
 H-HC--0.029700  -1  -14.75900000  -18.04600000    4.72000000 L
 H-HC-0.079100   -1  -14.43200000  -16.05000000    3.02500000 L
 H-HC-0.079100   -1  -15.41800000  -16.03100000    4.32700000 L
 H-HC-0.079100   -1  -13.89700000  -15.44900000    4.44600000 L
 H-HC-0.079100   -1  -12.64300000  -18.76100000    3.42300000 L
 H-HC-0.079100   -1  -13.94000000  -18.35600000    2.51400000 L
 H-HC-0.079100   -1  -12.74500000  -17.26900000    2.76200000 L
 N-N--0.415700   -1  -14.31400000  -17.90700000    7.65100000 L
 C-CT--0.003100  -1  -15.02500000  -17.61600000    8.90200000 L
 C-C-0.597300    -1  -14.07100000  -17.13900000    9.97700000 L
 O-O--0.567900   -1  -14.34900000  -16.13400000   10.62300000 L
 C-CT--0.003600  -1  -15.78400000  -18.88700000    9.36600000 L
 C-CT--0.064500  -1  -16.47800000  -19.00500000   10.76400000 L
 C-C-0.695100    -1  -15.81500000  -19.98600000   11.76200000 L
 O-O--0.608600   -1  -14.73900000  -19.71200000   12.31500000 L
 N-N--0.940700   -1  -16.38400000  -21.15300000   12.09200000 L
 H-H-0.271900    -1  -14.22400000  -18.87900000    7.26600000 L
 H-H1-0.085000   -1  -15.68200000  -16.87500000    8.71400000 L
 H-HC-0.017100   -1  -16.51400000  -19.09800000    8.66000000 L
 H-HC-0.017100   -1  -15.13100000  -19.69100000    9.29600000 L
 H-HC-0.035200   -1  -16.48800000  -18.09100000   11.18100000 L
 H-HC-0.035200   -1  -17.42600000  -19.30100000   10.61300000 L
 H-H-0.425100    -1  -15.98700000  -21.78600000   12.69800000 L
 H-H-0.425100    -1  -17.30700000  -21.35300000   11.65000000 L
 N-N--0.415700   -1  -12.90500000  -17.75300000   10.19100000 L
 C-CT--0.024900  -1  -12.02200000  -17.26300000   11.21800000 L
 C-C-0.597300    -1  -11.29000000  -15.98400000   10.80900000 L
 O-O--0.567900   -1  -10.90600000  -15.17800000   11.66400000 L
 C-CT-0.211700   -1  -11.08500000  -18.43300000   11.59800000 L
 O-OH--0.654600  -1  -10.26800000  -18.95800000   10.56600000 L
 H-H-0.271900    -1  -12.71600000  -18.56000000    9.58500000 L
 H-H1-0.084300   -1  -12.57500000  -17.04500000   12.04100000 L
 H-H1-0.035200   -1  -10.48600000  -18.12000000   12.35900000 L
 H-H1-0.035200   -1  -11.66000000  -19.18600000   11.97100000 L
 H-HO-0.427500   -1  -10.49700000  -18.40100000    9.73200000 L
 N-N--0.415700   -1  -11.14000000  -15.70600000    9.51100000 L
 C-CT--0.001400  -1  -10.49200000  -14.48500000    9.08000000 L
 C-C-0.597300    -1  -11.47200000  -13.32100000    9.20400000 L
 O-O--0.567900   -1  -11.07000000  -12.21400000    9.54900000 L
 C-CT--0.015200  -1   -9.98600000  -14.66900000    7.62800000 L
 C-CA--0.001100  -1   -9.33700000  -13.39300000    7.09700000 L
 C-CA--0.190600  -1   -8.02200000  -13.05000000    7.42900000 L
 C-CA--0.190600  -1  -10.10100000  -12.52800000    6.30900000 L
 C-CA--0.234100  -1   -7.49900000  -11.83700000    6.97500000 L
 C-CA--0.234100  -1   -9.58000000  -11.31800000    5.86500000 L
 C-C-0.322600    -1   -8.28500000  -10.98100000    6.20100000 L
 O-OH--0.557900  -1   -7.81400000   -9.77000000    5.77700000 L
 H-H-0.271900    -1  -11.51800000  -16.42300000    8.86800000 L
 H-H1-0.087600   -1   -9.71600000  -14.30100000    9.68600000 L
 H-HC-0.029500   -1   -9.31200000  -15.38400000    7.62600000 L
 H-HC-0.029500   -1  -10.75800000  -14.88300000    7.05800000 L
 H-HA-0.169900   -1   -7.46900000  -13.65500000    7.97700000 L
 H-HA-0.169900   -1  -11.03100000  -12.78400000    6.06200000 L
 H-HA-0.165600   -1   -6.55800000  -11.58100000    7.20400000 L
 H-HA-0.165600   -1  -10.13700000  -10.70400000    5.31200000 L
 H-HO-0.399200   -1   -8.53200000   -9.30300000    5.25700000 L
 N-N--0.415700   -1  -12.76700000  -13.51000000    8.93100000 L
 C-CT--0.038900  -1  -13.76800000  -12.46200000    9.05600000 L
 C-C-0.597300    -1  -13.85500000  -12.12200000   10.54400000 L
 O-O--0.567900   -1  -13.68900000  -10.95200000   10.90800000 L
 C-CT-0.365400   -1  -15.15700000  -12.94200000    8.55700000 L
 O-OH--0.676100  -1  -15.06700000  -13.47300000    7.24200000 L
 C-CT--0.243800  -1  -16.12200000  -11.77400000    8.56300000 L
 H-H-0.271900    -1  -12.99500000  -14.48400000    8.61800000 L
 H-H1-0.100700   -1  -13.45600000  -11.65800000    8.57100000 L
 H-H1-0.004300   -1  -15.48600000  -13.68200000    9.18600000 L
 H-HO-0.410200   -1  -14.08600000  -13.40300000    6.94900000 L
 H-HC-0.064200   -1  -15.62000000  -10.91500000    8.69600000 L
 H-HC-0.064200   -1  -16.61500000  -11.73200000    7.69000000 L
 H-HC-0.064200   -1  -16.78700000  -11.88200000    9.30700000 L
 N-N--0.415700   -1  -14.04100000  -13.13000000   11.40400000 L
 C-CT-0.014300   -1  -14.07600000  -12.93900000   12.84900000 L
 C-C-0.597300    -1  -12.95700000  -12.05100000   13.38400000 L
 O-O--0.567900   -1  -13.21400000  -11.00800000   14.00000000 L
 C-CT--0.204100  -1  -14.00600000  -14.28100000   13.57800000 L
 C-C-0.713000    -1  -15.29500000  -15.07600000   13.49600000 L
 O-O--0.593100   -1  -16.36800000  -14.57800000   13.13000000 L
 N-N--0.919100   -1  -15.20600000  -16.36600000   13.80300000 L
 H-H-0.271900    -1  -14.15800000  -14.06300000   10.94700000 L
 H-H1-0.104800   -1  -14.95300000  -12.47100000   13.06700000 L
 H-HC-0.079700   -1  -13.27200000  -14.82300000   13.17100000 L
 H-HC-0.079700   -1  -13.80100000  -14.10600000   14.54000000 L
 H-H-0.419600    -1  -14.32800000  -16.75900000   14.07500000 L
 H-H-0.419600    -1  -16.02000000  -16.94700000   13.76300000 L
 N-N--0.415700   -1  -11.72500000  -12.42600000   13.01100000 L
 C-CT--0.002400  -1  -10.53400000  -11.71000000   13.38200000 L
 C-C-0.597300    -1  -10.62700000  -10.28300000   12.87100000 L
 O-O--0.567900   -1  -10.41600000   -9.38300000   13.67500000 L
 C-CT--0.034300  -1   -9.31300000  -12.47400000   12.80700000 L
 C-CA-0.011800   -1   -8.00500000  -11.68400000   12.84400000 L
 C-CA--0.125600  -1   -7.41200000  -11.34200000   14.06800000 L
 C-CA--0.125600  -1   -7.43100000  -11.23800000   11.64700000 L
 C-CA--0.170400  -1   -6.25900000  -10.55600000   14.09600000 L
 C-CA--0.170400  -1   -6.28000000  -10.45600000   11.67900000 L
 C-CA--0.107200  -1   -5.70100000  -10.11600000   12.90200000 L
 H-H-0.271900    -1  -11.71800000  -13.29700000   12.42000000 L
 H-H1-0.097800   -1  -10.51400000  -11.65600000   14.38300000 L
 H-HC-0.029500   -1   -9.18700000  -13.28800000   13.34800000 L
 H-HC-0.029500   -1   -9.50900000  -12.68600000   11.86500000 L
 H-HA-0.133000   -1   -7.81100000  -11.65900000   14.91600000 L
 H-HA-0.133000   -1   -7.84600000  -11.48100000   10.78000000 L
 H-HA-0.143000   -1   -5.84400000  -10.31500000   14.97600000 L
 H-HA-0.143000   -1   -5.86700000  -10.13500000   10.81300000 L
 H-HA-0.129700   -1   -4.87400000   -9.54900000   12.92100000 L
 N-N--0.415700   -1  -11.00000000   -9.99000000   11.62000000 L
 C-CT--0.059700  -1  -11.05100000   -8.61000000   11.15200000 L
 C-C-0.597300    -1  -12.20900000   -7.84500000   11.79500000 L
 O-O--0.567900   -1  -12.05500000   -6.64600000   12.05200000 L
 C-CT-0.130300   -1  -11.14700000   -8.59600000    9.59600000 L
 C-CT--0.043000  -1   -9.82500000   -9.04100000    8.95800000 L
 C-CT--0.320400  -1  -11.51100000   -7.18900000    9.13700000 L
 C-CT--0.066000  -1   -8.64100000   -8.07700000    9.13900000 L
 H-H-0.271900    -1  -11.24100000  -10.80700000   11.03500000 L
 H-H1-0.086900   -1  -10.20600000   -8.17000000   11.47300000 L
 H-HC-0.018700   -1  -11.85300000   -9.24500000    9.33400000 L
 H-HC-0.023600   -1   -9.56800000   -9.93100000    9.34400000 L
 H-HC-0.023600   -1   -9.97600000   -9.16600000    7.97200000 L
 H-HC-0.088200   -1  -11.60900000   -7.17800000    8.14400000 L
 H-HC-0.088200   -1  -12.37200000   -6.91400000    9.56000000 L
 H-HC-0.088200   -1  -10.79000000   -6.55400000    9.40700000 L
 H-HC-0.018600   -1   -8.46600000   -7.96500000   10.11200000 L
 H-HC-0.018600   -1   -7.84300000   -8.46400000    8.68800000 L
 H-HC-0.018600   -1   -8.87700000   -7.20200000    8.72900000 L
 N-N--0.347900   -1  -13.35400000   -8.46200000   12.11200000 L
 C-CT--0.263700  -1  -14.44700000   -7.76600000   12.78000000 L
 C-C-0.734100    -1  -13.97400000   -7.29500000   14.16400000 L
 O-O--0.589400   -1  -14.15600000   -6.12500000   14.53800000 L
 C-CT--0.000700  -1  -15.62900000   -8.67000000   12.98800000 L
 C-CT-0.039000   -1  -16.49600000   -9.13100000   11.83100000 L
 C-CT-0.048600   -1  -17.55300000   -9.98100000   12.52100000 L
 N-N2--0.529500  -1  -18.46900000  -10.71700000   11.66400000 L
 C-CA-0.807600   -1  -19.06400000  -11.86200000   12.11000000 L
 N-N2--0.862700  -1  -18.83300000  -12.36200000   13.35200000 L
 N-N2--0.862700  -1  -19.91700000  -12.54000000   11.32000000 L
 H-H-0.274700    -1  -13.39100000   -9.46500000   11.84200000 L
 H-H1-0.156000   -1  -14.70200000   -6.96300000   12.24400000 L
 H-HC-0.032700   -1  -15.29700000   -9.52200000   13.47000000 L
 H-HC-0.032700   -1  -16.25900000   -8.21800000   13.67100000 L
 H-HC-0.028500   -1  -16.92900000   -8.37500000   11.42200000 L
 H-HC-0.028500   -1  -15.98600000   -9.69600000   11.24200000 L
 H-H1-0.068700   -1  -17.06800000  -10.63900000   13.12800000 L
 H-H1-0.068700   -1  -18.09100000   -9.36500000   13.12800000 L
 H-H-0.345600    -1  -18.67000000  -10.40400000   10.76300000 L
 H-H-0.447800    -1  -18.22000000  -11.85300000   13.95300000 L
 H-H-0.447800    -1  -19.26600000  -13.20000000   13.63200000 L
 H-H-0.447800    -1  -20.11400000  -12.17000000   10.41000000 L
 H-H-0.447800    -1  -20.33200000  -13.37600000   11.63700000 L
 N-N--0.415700   -1  -13.31300000   -8.21500000   14.89700000 L
 C-CT-0.033700   -1  -12.78500000   -7.95600000   16.22400000 L
 C-C-0.597300    -1  -11.82900000   -6.78800000   16.20600000 L
 O-O--0.567900   -1  -12.03300000   -5.83600000   16.96000000 L
 C-CT--0.182500  -1  -12.02800000   -9.15700000   16.76500000 L
 H-H-0.271900    -1  -13.21800000   -9.14100000   14.41000000 L
 H-H1-0.082300   -1  -13.55300000   -7.73900000   16.84200000 L
 H-HC-0.060300   -1  -12.33400000   -9.35500000   17.69600000 L
 H-HC-0.060300   -1  -12.20100000   -9.95200000   16.18400000 L
 H-HC-0.060300   -1  -11.04800000   -8.96000000   16.77300000 L
 N-N--0.415700   -1  -10.84800000   -6.82800000   15.30100000 L
 C-CT--0.087500  -1   -9.86900000   -5.76000000   15.14000000 L
 C-C-0.597300    -1  -10.53700000   -4.42300000   14.87200000 L
 O-O--0.567900   -1  -10.20300000   -3.42300000   15.52000000 L
 C-CT-0.298500   -1   -8.87600000   -6.14800000   13.98800000 L
 C-CT--0.319200  -1   -8.17800000   -4.96600000   13.30200000 L
 C-CT--0.319200  -1   -7.78800000   -6.99400000   14.65000000 L
 H-H-0.271900    -1  -10.84500000   -7.69700000   14.71600000 L
 H-H1-0.096900   -1   -9.34700000   -5.68200000   16.00100000 L
 H-HC--0.029700  -1   -9.41800000   -6.62000000   13.27900000 L
 H-HC-0.079100   -1   -7.28200000   -5.26000000   12.97400000 L
 H-HC-0.079100   -1   -8.73500000   -4.65800000   12.53300000 L
 H-HC-0.079100   -1   -8.07000000   -4.22300000   13.95900000 L
 H-HC-0.079100   -1   -7.84200000   -7.92800000   14.30000000 L
 H-HC-0.079100   -1   -6.89500000   -6.60300000   14.43600000 L
 H-HC-0.079100   -1   -7.93000000   -6.99400000   15.63800000 L
 N-N--0.347900   -1  -11.54000000   -4.39900000   13.99400000 L
 C-CT--0.263700  -1  -12.26500000   -3.18100000   13.67600000 L
 C-C-0.734100    -1  -13.01700000   -2.70200000   14.91300000 L
 O-O--0.589400   -1  -12.97900000   -1.52200000   15.25600000 L
 C-CT--0.000700  -1  -13.26300000   -3.42200000   12.53800000 L
 C-CT-0.039000   -1  -12.76200000   -3.73600000   11.12100000 L
 C-CT-0.048600   -1  -13.91000000   -3.56800000   10.10500000 L
 N-N2--0.529500  -1  -13.51800000   -3.79600000    8.70900000 L
 C-CA-0.807600   -1  -14.08100000   -4.73000000    7.91100000 L
 N-N2--0.862700  -1  -15.06200000   -5.54600000    8.30800000 L
 N-N2--0.862700  -1  -13.60700000   -4.88100000    6.68500000 L
 H-H-0.274700    -1  -11.75400000   -5.32400000   13.56100000 L
 H-H1-0.156000   -1  -11.61200000   -2.47200000   13.40400000 L