%
#

1br5_flip_ligH_hoptdefH

0 1
O 0.00000000000000 0.00000000000000 -0.73578586109551
H 1.44183152868459 0.00000000000000 0.36789293054775
H -1.44183152868459 0.00000000000000 0.36789293054775

