%nprocshared=4
%mem=4GB
# opt=nomicro oniom(external='GauAPIs -m AIQM1':external='GauAPIs -m gfn2-xtb -n 4') nosymm
geom=connectivity

1aid_THK_conf_1

0 1 0 1 0 1
 N                0   63.26500000   38.76600000   -0.21400000 H
 C                0   63.01200000   39.89200000   -1.13300000 H
 C                0   62.67200000   39.41400000   -2.55000000 H
 C                0   63.69700000   38.40100000   -3.09500000 H
 O                0   64.98100000   39.01900000   -3.10600000 H
 C                0   63.76800000   37.22400000   -2.10800000 H
 C                0   64.16900000   37.71100000   -0.71200000 H
 C                0   63.78700000   39.22400000    1.09000000 H
 C                0   62.76000000   40.03300000    1.89000000 H
 C                0   63.51500000   41.11500000    2.67900000 H
 C                0   62.86900000   41.41700000    4.04600000 L H 10
 C                0   62.96400000   40.27900000    4.90500000 L
 C                0   64.21300000   39.88900000    5.41900000 L
 C                0   64.35700000   38.71100000    6.15700000 L
 C                0   63.24400000   37.90700000    6.40300000 L
 F                0   63.38100000   36.72400000    7.06900000 L
 C                0   61.99000000   38.31100000    5.93500000 L
 C                0   61.84200000   39.49200000    5.20000000 L
 C                0   63.42600000   38.04500000   -4.45400000 H
 C                0   63.20600000   39.06100000   -5.40500000 H
 C                0   62.84700000   38.76000000   -6.72000000 H
 C                0   62.71700000   37.43000000   -7.11800000 H
 Cl               0   62.17200000   37.07300000   -8.74100000 L H 22
 C                0   62.97600000   36.40200000   -6.19500000 H
 C                0   63.34300000   36.70600000   -4.87400000 H
 S                0   61.13800000   41.90200000    3.76000000 L
 C                0   61.08200000   43.32400000    4.89200000 L
 C                0   62.44500000   43.77500000    5.42700000 L
 S                0   63.82000000   42.80200000    4.78000000 L
 H                0   62.22100000   40.56900000   -0.73400000 H
 H                0   63.86700000   40.60600000   -1.14200000 H
 H                0   61.63700000   39.00100000   -2.59600000 H
 H                0   62.55200000   40.27600000   -3.24600000 H
 H                0   65.61300000   38.39400000   -3.44200000 H
 H                0   62.81500000   36.64500000   -2.08500000 H
 H                0   64.44500000   36.41700000   -2.47400000 H
 H                0   65.23200000   38.04500000   -0.69000000 H
 H                0   64.23600000   36.86200000    0.00800000 H
 H                0   64.17300000   38.36600000    1.68800000 H
 H                0   64.73400000   39.79700000    0.96100000 H
 H                0   61.94900000   40.45300000    1.24900000 H
 H                0   62.11900000   39.39200000    2.54100000 H
 H                0   64.59000000   40.84600000    2.79600000 H
 H                0   63.62500000   42.04500000    2.07500000 H
 H                0   65.09900000   40.52000000    5.23900000 L
 H                0   65.34600000   38.41600000    6.54400000 L
 H                0   61.10400000   37.68900000    6.14800000 L
 H                0   60.84100000   39.80200000    4.85300000 L
 H                0   63.31700000   40.11800000   -5.11200000 H
 H                0   62.66600000   39.57200000   -7.44300000 H
 H                0   62.89000000   35.34800000   -6.50900000 H
 H                0   63.56600000   35.89100000   -4.16400000 H
 H                0   60.55400000   44.17900000    4.41000000 L
 H                0   60.38400000   43.11700000    5.73700000 L
 H                0   62.60500000   44.86200000    5.23800000 L
 H                0   62.45100000   43.77900000    6.54200000 L

 1 2 1.0 7 1.0 8 1.0
 2 3 1.0 30 1.0 31 1.0
 3 4 1.0 32 1.0 33 1.0
 4 5 1.0 6 1.0 19 1.5
 5 34 1.0
 6 7 1.0 35 1.0 36 1.0
 7 37 1.0 38 1.0
 8 9 1.0 39 1.0 40 1.0
 9 10 1.0 41 1.0 42 1.0
 10 11 1.0 43 1.0 44 1.0
 11 12 1.5 26 1.0 29 1.0
 12 13 1.5 18 1.5
 13 14 1.5 45 1.0
 14 15 1.5 46 1.0
 15 16 1.0 17 1.5
 16
 17 18 1.5 47 1.0
 18 48 1.0
 19 20 1.5 25 1.5
 20 21 1.5 49 1.0
 21 22 1.5 50 1.0
 22 23 1.0 24 1.5
 23
 24 25 1.5 51 1.0
 25 52 1.0
 26 27 1.0
 27 28 1.0 53 1.0 54 1.0
 28 29 1.0 55 1.0 56 1.0
 29
 30
 31
 32
 33
 34
 35
 36
 37
 38
 39
 40
 41
 42
 43
 44
 45
 46
 47
 48
 49
 50
 51
 52
 53
 54
 55
 56

