
! b3lyp def2-svp
* xyzfile -1 1 test.xyz


